10 45
1 2 9
1 3 15
1 4 24
1 5 4
1 6 16
1 7 16
1 8 24
1 9 3
1 10 28
2 3 2
2 4 17
2 5 10
2 6 8
2 7 14
2 8 12
2 9 29
2 10 29
3 4 9
3 5 29
3 6 22
3 7 26
3 8 16
3 9 14
3 10 4
4 5 6
4 6 20
4 7 27
4 8 20
4 9 23
4 10 12
5 6 24
5 7 9
5 8 5
5 9 6
5 10 5
6 7 18
6 8 6
6 9 18
6 10 24
7 8 12
7 9 2
7 10 16
8 9 21
8 10 5
9 10 16
